8699
9485
5260
10100
4677
2025
5654
2947
2146
8569
2104
5640
1569
2348
1343
3580
4124
8954
4863
5492
2711
7920
3531
2078
8638
4287
5800
6577
7804
8925
3505
2786
2929
8156
10008
1142
9787
5695
1355
1118
6561
4772
4388
5430
9779
2332
1784
5391
4834
2614
2935
